3
10
10
1.0
1 2 0
1 2 0
1 3 0
1 4 0
1 30 0
3 6 3 1 2 5
1 3 1 6
1 4 1 6
1 5 1 6
2 2 1 8
10
2.0
1 2 0
1 2 0
1 3 0
1 4 0
1 30 0
3 6 3 1 2 5
1 3 1 6
1 4 1 6
1 5 1 6
2 2 1 8
10
3.0
1 2 0
1 2 0
1 3 0
1 4 0
1 30 0
3 6 3 1 2 5
1 3 1 6
1 4 1 6
1 5 1 6
2 2 1 8
10
4.0
1 2 0
1 2 0
1 3 0
1 4 0
1 25 0
3 6 3 1 2 5
1 3 1 6
1 4 1 6
1 5 1 6
2 2 1 8
10
5.0
1 2 0
1 2 0
1 3 0
1 4 0
1 45 0
3 6 3 1 2 5
1 3 1 6
1 4 1 6
1 5 1 6
2 2 1 8
10
6.0
1 2 0
1 2 0
1 3 0
1 4 0
1 45 0
3 6 3 1 2 5
1 3 1 6
1 4 1 6
1 5 1 6
2 2 1 8
10
7.0
1 2 0
1 2 0
1 3 0
1 4 0
1 51 0
3 6 3 1 2 5
1 3 1 6
1 4 1 6
1 5 1 6
2 2 1 8
10
8.0
1 2 0
1 2 0
1 3 0
1 4 0
1 52 0
3 6 3 1 2 5
1 3 1 6
1 4 1 6
1 5 1 6
2 2 1 8
10
9.0
1 2 0
1 2 0
1 3 0
1 4 0
1 35 0
3 6 3 1 2 5
1 3 1 6
1 4 1 6
1 5 1 6
2 2 1 8
10
10.0
1 2 0
1 2 0
1 3 0
1 4 0
1 15 0
3 6 3 1 2 5
1 3 1 6
1 4 1 6
1 5 1 6
2 2 1 8
